(set-logic SLHV)
(declare-hvar emp IntHeap)
(declare-locvar nil IntLoc)
(declare-datatype pt_record_0 ((Pt_R_0 (loc IntLoc))))
(declare-datatype pt_record_1 ((Pt_R_1 (data Int))))
(declare-const invalidFree_3 Bool)
(declare-const loc_3 Int)
(declare-const invalidFree_2 Bool)
(declare-hvar H_2 IntHeap)
(declare-hvar H_3 IntHeap)
(declare-hvar AH_2 IntHeap)
(declare-hvar AH_3 IntHeap)
(declare-const $r_main0_2 Int)
(declare-const $r_main0_3 Int)
(declare-const $i8_push0_2 Int)
(declare-const $i8_push0_3 Int)
(declare-const $i8_main0_2 Int)
(declare-const $i8_main0_3 Int)
(declare-const $i7_push0_2 Int)
(declare-const $i7_push0_3 Int)
(declare-const $i7_pop0_2 Int)
(declare-const $i7_pop0_3 Int)
(declare-const $i7_main0_2 Int)
(declare-const $i7_main0_3 Int)
(declare-const $i6_push0_2 Int)
(declare-const $i6_push0_3 Int)
(declare-const $i6_pop0_2 Int)
(declare-const $i6_pop0_3 Int)
(declare-const $i5_push0_2 Int)
(declare-const $i5_push0_3 Int)
(declare-const $i5_pop0_2 Int)
(declare-const $i5_pop0_3 Int)
(declare-const $i5_main0_2 Int)
(declare-const $i5_main0_3 Int)
(declare-const $i4_push0_2 Int)
(declare-const $i4_push0_3 Int)
(declare-const $i4_pop0_2 Int)
(declare-const $i4_pop0_3 Int)
(declare-const $i4_main0_2 Int)
(declare-const $i4_main0_3 Int)
(declare-const $i3_push0_2 Int)
(declare-const $i3_push0_3 Int)
(declare-const $i3_pop0_2 Int)
(declare-const $i3_pop0_3 Int)
(declare-const $i3_main0_2 Int)
(declare-const $i3_main0_3 Int)
(declare-const $i2_push0_2 Int)
(declare-const $i2_push0_3 Int)
(declare-const $i2_pop0_2 Int)
(declare-const $i2_pop0_3 Int)
(declare-const $i23_push0_2 Int)
(declare-const $i23_push0_3 Int)
(declare-const $i22_main0_2 Int)
(declare-const $i22_main0_3 Int)
(declare-const $i21_main0_2 Int)
(declare-const $i21_main0_3 Int)
(declare-const $i20_pop0_2 Int)
(declare-const $i20_pop0_3 Int)
(declare-const $i20_main0_2 Int)
(declare-const $i20_main0_3 Int)
(declare-const $i1_push0_2 Int)
(declare-const $i1_push0_3 Int)
(declare-const $i1_pop0_2 Int)
(declare-const $i1_pop0_3 Int)
(declare-const $i1_main0_2 Int)
(declare-const $i1_main0_3 Int)
(declare-const $i19_main0_2 Int)
(declare-const $i19_main0_3 Int)
(declare-const $i17_main0_2 Int)
(declare-const $i17_main0_3 Int)
(declare-const $i16_pop0_2 Int)
(declare-const $i16_pop0_3 Int)
(declare-const $i10_pop0_2 Int)
(declare-const $i10_pop0_3 Int)
(declare-const $i10_main0_2 Int)
(declare-const $i10_main0_3 Int)
(declare-const $i0_push0_2 Int)
(declare-const $i0_push0_3 Int)
(declare-const $i0_pop0_2 Int)
(declare-const $i0_pop0_3 Int)
(declare-const $M.9_2 Int)
(declare-const $M.9_3 Int)
(declare-const $M.6_2 Int)
(declare-const $M.6_3 Int)
(declare-const $M.0_2 Int)
(declare-const $M.0_3 Int)
(declare-locvar $p9_push0_2 IntLoc)
(declare-locvar $p9_push0_3 IntLoc)
(declare-locvar $p9_pop0_2 IntLoc)
(declare-locvar $p9_pop0_3 IntLoc)
(declare-locvar $p9_main0_2 IntLoc)
(declare-locvar $p9_main0_3 IntLoc)
(declare-locvar $p8_pop0_2 IntLoc)
(declare-locvar $p8_pop0_3 IntLoc)
(declare-locvar $p24_push0_2 IntLoc)
(declare-locvar $p24_push0_3 IntLoc)
(declare-locvar $p24_pop0_2 IntLoc)
(declare-locvar $p24_pop0_3 IntLoc)
(declare-locvar $p23_pop0_2 IntLoc)
(declare-locvar $p23_pop0_3 IntLoc)
(declare-locvar $p22_push0_2 IntLoc)
(declare-locvar $p22_push0_3 IntLoc)
(declare-locvar $p22_pop0_2 IntLoc)
(declare-locvar $p22_pop0_3 IntLoc)
(declare-locvar $p21_push0_2 IntLoc)
(declare-locvar $p21_push0_3 IntLoc)
(declare-locvar $p21_pop0_2 IntLoc)
(declare-locvar $p21_pop0_3 IntLoc)
(declare-locvar $p20_push0_2 IntLoc)
(declare-locvar $p20_push0_3 IntLoc)
(declare-locvar $p19_push0_2 IntLoc)
(declare-locvar $p19_push0_3 IntLoc)
(declare-locvar $p19_pop0_2 IntLoc)
(declare-locvar $p19_pop0_3 IntLoc)
(declare-locvar $p18_push0_2 IntLoc)
(declare-locvar $p18_push0_3 IntLoc)
(declare-locvar $p18_pop0_2 IntLoc)
(declare-locvar $p18_pop0_3 IntLoc)
(declare-locvar $p18_main0_2 IntLoc)
(declare-locvar $p18_main0_3 IntLoc)
(declare-locvar $p17_push0_2 IntLoc)
(declare-locvar $p17_push0_3 IntLoc)
(declare-locvar $p17_pop0_2 IntLoc)
(declare-locvar $p17_pop0_3 IntLoc)
(declare-locvar $p16_push0_2 IntLoc)
(declare-locvar $p16_push0_3 IntLoc)
(declare-locvar $p16_main0_2 IntLoc)
(declare-locvar $p16_main0_3 IntLoc)
(declare-locvar $p15_push0_2 IntLoc)
(declare-locvar $p15_push0_3 IntLoc)
(declare-locvar $p15_pop0_2 IntLoc)
(declare-locvar $p15_pop0_3 IntLoc)
(declare-locvar $p15_main0_2 IntLoc)
(declare-locvar $p15_main0_3 IntLoc)
(declare-locvar $p14_push0_2 IntLoc)
(declare-locvar $p14_push0_3 IntLoc)
(declare-locvar $p14_pop0_2 IntLoc)
(declare-locvar $p14_pop0_3 IntLoc)
(declare-locvar $p14_main0_2 IntLoc)
(declare-locvar $p14_main0_3 IntLoc)
(declare-locvar $p13_push0_2 IntLoc)
(declare-locvar $p13_push0_3 IntLoc)
(declare-locvar $p13_pop0_2 IntLoc)
(declare-locvar $p13_pop0_3 IntLoc)
(declare-locvar $p13_main0_2 IntLoc)
(declare-locvar $p13_main0_3 IntLoc)
(declare-locvar $p12_push0_2 IntLoc)
(declare-locvar $p12_push0_3 IntLoc)
(declare-locvar $p12_pop0_2 IntLoc)
(declare-locvar $p12_pop0_3 IntLoc)
(declare-locvar $p12_main0_2 IntLoc)
(declare-locvar $p12_main0_3 IntLoc)
(declare-locvar $p11_push0_2 IntLoc)
(declare-locvar $p11_push0_3 IntLoc)
(declare-locvar $p11_pop0_2 IntLoc)
(declare-locvar $p11_pop0_3 IntLoc)
(declare-locvar $p11_main0_2 IntLoc)
(declare-locvar $p11_main0_3 IntLoc)
(declare-locvar $p10_push0_2 IntLoc)
(declare-locvar $p10_push0_3 IntLoc)
(declare-locvar $p0_main0_2 IntLoc)
(declare-locvar $p0_main0_3 IntLoc)
(declare-locvar $M.8_2 IntLoc)
(declare-locvar $M.8_3 IntLoc)
(declare-locvar $M.7_2 IntLoc)
(declare-locvar $M.7_3 IntLoc)
(declare-locvar $M.5_2 IntLoc)
(declare-locvar $M.5_3 IntLoc)
(declare-locvar $M.4_2 IntLoc)
(declare-locvar $M.4_3 IntLoc)
(declare-locvar $M.10_2 IntLoc)
(declare-locvar $M.10_3 IntLoc)
(declare-locvar $M.1_2 IntLoc)
(declare-locvar $M.1_3 IntLoc)
(declare-const $i6_main01_3 Int)
(declare-const $i6_main0_3 Int)
(declare-const $i2_main03_3 Int)
(declare-const $i2_main0_3 Int)
(declare-const loc_2 Int)
(declare-const $i6_main0_2 Int)
(declare-const $i2_main0_2 Int)
(declare-locvar $p9_main01_3 IntLoc)
(declare-const $i10_main01_3 Int)
(declare-const $i8_main01_3 Int)
(declare-const invalidFree_1 Bool)
(declare-hvar H_1 IntHeap)
(declare-hvar AH_1 IntHeap)
(declare-const $r_main0_1 Int)
(declare-const $i8_push0_1 Int)
(declare-const $i8_main0_1 Int)
(declare-const $i7_push0_1 Int)
(declare-const $i7_pop0_1 Int)
(declare-const $i7_main0_1 Int)
(declare-const $i6_push0_1 Int)
(declare-const $i6_pop0_1 Int)
(declare-const $i6_main0_1 Int)
(declare-const $i5_push0_1 Int)
(declare-const $i5_pop0_1 Int)
(declare-const $i5_main0_1 Int)
(declare-const $i4_push0_1 Int)
(declare-const $i4_pop0_1 Int)
(declare-const $i3_push0_1 Int)
(declare-const $i3_pop0_1 Int)
(declare-const $i2_push0_1 Int)
(declare-const $i2_pop0_1 Int)
(declare-const $i23_push0_1 Int)
(declare-const $i22_main0_1 Int)
(declare-const $i21_main0_1 Int)
(declare-const $i20_pop0_1 Int)
(declare-const $i20_main0_1 Int)
(declare-const $i1_push0_1 Int)
(declare-const $i1_pop0_1 Int)
(declare-const $i1_main0_1 Int)
(declare-const $i19_main0_1 Int)
(declare-const $i17_main0_1 Int)
(declare-const $i16_pop0_1 Int)
(declare-const $i10_pop0_1 Int)
(declare-const $i10_main0_1 Int)
(declare-const $i0_push0_1 Int)
(declare-const $i0_pop0_1 Int)
(declare-const $M.9_1 Int)
(declare-const $M.6_1 Int)
(declare-const $M.0_1 Int)
(declare-locvar $p9_push0_1 IntLoc)
(declare-locvar $p9_pop0_1 IntLoc)
(declare-locvar $p9_main0_1 IntLoc)
(declare-locvar $p8_pop0_1 IntLoc)
(declare-locvar $p24_push0_1 IntLoc)
(declare-locvar $p24_pop0_1 IntLoc)
(declare-locvar $p23_pop0_1 IntLoc)
(declare-locvar $p22_push0_1 IntLoc)
(declare-locvar $p22_pop0_1 IntLoc)
(declare-locvar $p21_push0_1 IntLoc)
(declare-locvar $p21_pop0_1 IntLoc)
(declare-locvar $p20_push0_1 IntLoc)
(declare-locvar $p19_push0_1 IntLoc)
(declare-locvar $p19_pop0_1 IntLoc)
(declare-locvar $p18_push0_1 IntLoc)
(declare-locvar $p18_pop0_1 IntLoc)
(declare-locvar $p18_main0_1 IntLoc)
(declare-locvar $p17_push0_1 IntLoc)
(declare-locvar $p17_pop0_1 IntLoc)
(declare-locvar $p16_push0_1 IntLoc)
(declare-locvar $p16_main0_1 IntLoc)
(declare-locvar $p15_push0_1 IntLoc)
(declare-locvar $p15_pop0_1 IntLoc)
(declare-locvar $p15_main0_1 IntLoc)
(declare-locvar $p14_push0_1 IntLoc)
(declare-locvar $p14_pop0_1 IntLoc)
(declare-locvar $p14_main0_1 IntLoc)
(declare-locvar $p13_push0_1 IntLoc)
(declare-locvar $p13_pop0_1 IntLoc)
(declare-locvar $p13_main0_1 IntLoc)
(declare-locvar $p12_push0_1 IntLoc)
(declare-locvar $p12_pop0_1 IntLoc)
(declare-locvar $p12_main0_1 IntLoc)
(declare-locvar $p11_push0_1 IntLoc)
(declare-locvar $p11_pop0_1 IntLoc)
(declare-locvar $p11_main0_1 IntLoc)
(declare-locvar $p10_push0_1 IntLoc)
(declare-locvar $p0_main0_1 IntLoc)
(declare-locvar $M.8_1 IntLoc)
(declare-locvar $M.7_1 IntLoc)
(declare-locvar $M.5_1 IntLoc)
(declare-locvar $M.4_1 IntLoc)
(declare-locvar $M.10_1 IntLoc)
(declare-locvar $M.1_1 IntLoc)
(declare-const $i4_main01_2 Int)
(declare-const $i3_main01_2 Int)
(declare-const $i2_main02_2 Int)
(declare-const loc_1 Int)
(declare-const $i4_main0_1 Int)
(declare-const $i3_main0_1 Int)
(declare-const $i2_main0_1 Int)
(declare-const invalidFree_0 Bool)
(declare-hvar H_0 IntHeap)
(declare-hvar AH_0 IntHeap)
(declare-const $r_main0_0 Int)
(declare-const $i8_push0_0 Int)
(declare-const $i8_main0_0 Int)
(declare-const $i7_push0_0 Int)
(declare-const $i7_pop0_0 Int)
(declare-const $i7_main0_0 Int)
(declare-const $i6_push0_0 Int)
(declare-const $i6_pop0_0 Int)
(declare-const $i6_main0_0 Int)
(declare-const $i5_push0_0 Int)
(declare-const $i5_pop0_0 Int)
(declare-const $i5_main0_0 Int)
(declare-const $i4_push0_0 Int)
(declare-const $i4_pop0_0 Int)
(declare-const $i4_main0_0 Int)
(declare-const $i3_push0_0 Int)
(declare-const $i3_pop0_0 Int)
(declare-const $i3_main0_0 Int)
(declare-const $i2_push0_0 Int)
(declare-const $i2_pop0_0 Int)
(declare-const $i23_push0_0 Int)
(declare-const $i22_main0_0 Int)
(declare-const $i21_main0_0 Int)
(declare-const $i20_pop0_0 Int)
(declare-const $i20_main0_0 Int)
(declare-const $i1_push0_0 Int)
(declare-const $i1_pop0_0 Int)
(declare-const $i19_main0_0 Int)
(declare-const $i17_main0_0 Int)
(declare-const $i16_pop0_0 Int)
(declare-const $i10_pop0_0 Int)
(declare-const $i10_main0_0 Int)
(declare-const $i0_push0_0 Int)
(declare-const $i0_pop0_0 Int)
(declare-const $M.9_0 Int)
(declare-const $M.6_0 Int)
(declare-const $M.0_0 Int)
(declare-locvar $p9_push0_0 IntLoc)
(declare-locvar $p9_pop0_0 IntLoc)
(declare-locvar $p9_main0_0 IntLoc)
(declare-locvar $p8_pop0_0 IntLoc)
(declare-locvar $p24_push0_0 IntLoc)
(declare-locvar $p24_pop0_0 IntLoc)
(declare-locvar $p23_pop0_0 IntLoc)
(declare-locvar $p22_push0_0 IntLoc)
(declare-locvar $p22_pop0_0 IntLoc)
(declare-locvar $p21_push0_0 IntLoc)
(declare-locvar $p21_pop0_0 IntLoc)
(declare-locvar $p20_push0_0 IntLoc)
(declare-locvar $p19_push0_0 IntLoc)
(declare-locvar $p19_pop0_0 IntLoc)
(declare-locvar $p18_push0_0 IntLoc)
(declare-locvar $p18_pop0_0 IntLoc)
(declare-locvar $p18_main0_0 IntLoc)
(declare-locvar $p17_push0_0 IntLoc)
(declare-locvar $p17_pop0_0 IntLoc)
(declare-locvar $p16_push0_0 IntLoc)
(declare-locvar $p16_main0_0 IntLoc)
(declare-locvar $p15_push0_0 IntLoc)
(declare-locvar $p15_pop0_0 IntLoc)
(declare-locvar $p15_main0_0 IntLoc)
(declare-locvar $p14_push0_0 IntLoc)
(declare-locvar $p14_pop0_0 IntLoc)
(declare-locvar $p14_main0_0 IntLoc)
(declare-locvar $p13_push0_0 IntLoc)
(declare-locvar $p13_pop0_0 IntLoc)
(declare-locvar $p13_main0_0 IntLoc)
(declare-locvar $p12_push0_0 IntLoc)
(declare-locvar $p12_pop0_0 IntLoc)
(declare-locvar $p12_main0_0 IntLoc)
(declare-locvar $p11_push0_0 IntLoc)
(declare-locvar $p11_pop0_0 IntLoc)
(declare-locvar $p11_main0_0 IntLoc)
(declare-locvar $p10_push0_0 IntLoc)
(declare-locvar $M.8_0 IntLoc)
(declare-locvar $M.7_0 IntLoc)
(declare-locvar $M.5_0 IntLoc)
(declare-locvar $M.4_0 IntLoc)
(declare-locvar $M.10_0 IntLoc)
(declare-locvar $M.1_0 IntLoc)
(declare-locvar $p0_main01_1 IntLoc)
(declare-const $i2_main01_1 Int)
(declare-const $i1_main01_1 Int)
(declare-const loc_0 Int)
(assert
 (let (($x2160 (= loc_3 3)))
 (let (($x2260 (= invalidFree_3 invalidFree_2)))
 (let (($x2075 (= H_3 H_2)))
 (let (($x2076 (and (and true (= AH_3 AH_2)) $x2075)))
 (let (($x2068 (= $r_main0_3 $r_main0_2)))
 (let (($x2065 (= $i8_push0_3 $i8_push0_2)))
 (let (($x2138 (= $i8_main0_3 $i8_main0_2)))
 (let (($x2062 (= $i7_push0_3 $i7_push0_2)))
 (let (($x2059 (= $i7_pop0_3 $i7_pop0_2)))
 (let (($x2056 (= $i7_main0_3 $i7_main0_2)))
 (let (($x2053 (= $i6_push0_3 $i6_push0_2)))
 (let (($x2050 (= $i6_pop0_3 $i6_pop0_2)))
 (let (($x2044 (= $i5_push0_3 $i5_push0_2)))
 (let (($x2041 (= $i5_pop0_3 $i5_pop0_2)))
 (let (($x2038 (= $i5_main0_3 $i5_main0_2)))
 (let (($x2035 (= $i4_push0_3 $i4_push0_2)))
 (let (($x2032 (= $i4_pop0_3 $i4_pop0_2)))
 (let (($x2029 (= $i4_main0_3 $i4_main0_2)))
 (let (($x2026 (= $i3_push0_3 $i3_push0_2)))
 (let (($x2023 (= $i3_pop0_3 $i3_pop0_2)))
 (let (($x2020 (= $i3_main0_3 $i3_main0_2)))
 (let (($x2017 (= $i2_push0_3 $i2_push0_2)))
 (let (($x2014 (= $i2_pop0_3 $i2_pop0_2)))
 (let (($x2008 (= $i23_push0_3 $i23_push0_2)))
 (let (($x2005 (= $i22_main0_3 $i22_main0_2)))
 (let (($x2002 (= $i21_main0_3 $i21_main0_2)))
 (let (($x1999 (= $i20_pop0_3 $i20_pop0_2)))
 (let (($x1996 (= $i20_main0_3 $i20_main0_2)))
 (let (($x1993 (= $i1_push0_3 $i1_push0_2)))
 (let (($x1990 (= $i1_pop0_3 $i1_pop0_2)))
 (let (($x1987 (= $i1_main0_3 $i1_main0_2)))
 (let (($x1984 (= $i19_main0_3 $i19_main0_2)))
 (let (($x1981 (= $i17_main0_3 $i17_main0_2)))
 (let (($x1978 (= $i16_pop0_3 $i16_pop0_2)))
 (let (($x1975 (= $i10_pop0_3 $i10_pop0_2)))
 (let (($x1972 (= $i10_main0_3 $i10_main0_2)))
 (let (($x1969 (= $i0_push0_3 $i0_push0_2)))
 (let (($x1966 (= $i0_pop0_3 $i0_pop0_2)))
 (let (($x1963 (= $M.9_3 $M.9_2)))
 (let (($x1964 (and (and (and true (= $M.0_3 $M.0_2)) (= $M.6_3 $M.6_2)) $x1963)))
 (let (($x1970 (and (and $x1964 $x1966) $x1969)))
 (let (($x1988 (and (and (and (and (and (and $x1970 $x1972) $x1975) $x1978) $x1981) $x1984) $x1987)))
 (let (($x2006 (and (and (and (and (and (and $x1988 $x1990) $x1993) $x1996) $x1999) $x2002) $x2005)))
 (let (($x2009 (and $x2006 $x2008)))
 (let (($x2190 (and (and (and (and (and (and $x2009 $x2014) $x2017) $x2020) $x2023) $x2026) $x2029)))
 (let (($x2196 (and (and (and (and (and (and $x2190 $x2032) $x2035) $x2038) $x2041) $x2044) $x2050)))
 (let (($x2202 (and (and (and (and (and (and $x2196 $x2053) $x2056) $x2059) $x2062) $x2138) $x2065)))
 (let (($x2203 (and $x2202 $x2068)))
 (let (($x1953 (= $p9_push0_3 $p9_push0_2)))
 (let (($x1950 (= $p9_pop0_3 $p9_pop0_2)))
 (let (($x1947 (= $p9_main0_3 $p9_main0_2)))
 (let (($x1944 (= $p8_pop0_3 $p8_pop0_2)))
 (let (($x1941 (= $p24_push0_3 $p24_push0_2)))
 (let (($x1938 (= $p24_pop0_3 $p24_pop0_2)))
 (let (($x1935 (= $p23_pop0_3 $p23_pop0_2)))
 (let (($x1932 (= $p22_push0_3 $p22_push0_2)))
 (let (($x1929 (= $p22_pop0_3 $p22_pop0_2)))
 (let (($x1926 (= $p21_push0_3 $p21_push0_2)))
 (let (($x1923 (= $p21_pop0_3 $p21_pop0_2)))
 (let (($x1920 (= $p20_push0_3 $p20_push0_2)))
 (let (($x1917 (= $p19_push0_3 $p19_push0_2)))
 (let (($x1914 (= $p19_pop0_3 $p19_pop0_2)))
 (let (($x1911 (= $p18_push0_3 $p18_push0_2)))
 (let (($x1908 (= $p18_pop0_3 $p18_pop0_2)))
 (let (($x1905 (= $p18_main0_3 $p18_main0_2)))
 (let (($x1902 (= $p17_push0_3 $p17_push0_2)))
 (let (($x1899 (= $p17_pop0_3 $p17_pop0_2)))
 (let (($x1896 (= $p16_push0_3 $p16_push0_2)))
 (let (($x1893 (= $p16_main0_3 $p16_main0_2)))
 (let (($x1890 (= $p15_push0_3 $p15_push0_2)))
 (let (($x1887 (= $p15_pop0_3 $p15_pop0_2)))
 (let (($x1884 (= $p15_main0_3 $p15_main0_2)))
 (let (($x1881 (= $p14_push0_3 $p14_push0_2)))
 (let (($x1878 (= $p14_pop0_3 $p14_pop0_2)))
 (let (($x1875 (= $p14_main0_3 $p14_main0_2)))
 (let (($x1872 (= $p13_push0_3 $p13_push0_2)))
 (let (($x1869 (= $p13_pop0_3 $p13_pop0_2)))
 (let (($x1866 (= $p13_main0_3 $p13_main0_2)))
 (let (($x1863 (= $p12_push0_3 $p12_push0_2)))
 (let (($x1860 (= $p12_pop0_3 $p12_pop0_2)))
 (let (($x1857 (= $p12_main0_3 $p12_main0_2)))
 (let (($x1854 (= $p11_push0_3 $p11_push0_2)))
 (let (($x1851 (= $p11_pop0_3 $p11_pop0_2)))
 (let (($x1848 (= $p11_main0_3 $p11_main0_2)))
 (let (($x1845 (= $p10_push0_3 $p10_push0_2)))
 (let (($x1842 (= $p0_main0_3 $p0_main0_2)))
 (let (($x1839 (= $M.8_3 $M.8_2)))
 (let (($x1836 (= $M.7_3 $M.7_2)))
 (let (($x1833 (= $M.5_3 $M.5_2)))
 (let (($x1830 (= $M.4_3 $M.4_2)))
 (let (($x1831 (and (and (and true (= $M.1_3 $M.1_2)) (= $M.10_3 $M.10_2)) $x1830)))
 (let (($x1849 (and (and (and (and (and (and $x1831 $x1833) $x1836) $x1839) $x1842) $x1845) $x1848)))
 (let (($x1867 (and (and (and (and (and (and $x1849 $x1851) $x1854) $x1857) $x1860) $x1863) $x1866)))
 (let (($x1885 (and (and (and (and (and (and $x1867 $x1869) $x1872) $x1875) $x1878) $x1881) $x1884)))
 (let (($x1903 (and (and (and (and (and (and $x1885 $x1887) $x1890) $x1893) $x1896) $x1899) $x1902)))
 (let (($x1921 (and (and (and (and (and (and $x1903 $x1905) $x1908) $x1911) $x1914) $x1917) $x1920)))
 (let (($x1939 (and (and (and (and (and (and $x1921 $x1923) $x1926) $x1929) $x1932) $x1935) $x1938)))
 (let (($x1945 (and (and $x1939 $x1941) $x1944)))
 (let (($x1954 (and (and (and $x1945 $x1947) $x1950) $x1953)))
 (let (($x2180 (= $i6_main0_3 $i6_main01_3)))
 (let (($x2179 (= $i2_main0_3 $i2_main03_3)))
 (let (($x2181 (and $x2179 $x2180)))
 (let (($x2182 (and $x2181 true)))
 (let (($x2168 (= $i2_main03_3 $i6_main01_3)))
 (let (($x2284 (or $x2168 invalidFree_2)))
 (let (($x2176 (or (and (and (distinct $i5_main0_2 0) true) (= $i6_main01_3 1)) (and (not (and (distinct $i5_main0_2 0) true)) (= $i6_main01_3 0)))))
 (let (($x2290 (and (and (and (and (and (or $x2176 invalidFree_2) $x2284) $x2182) $x1954) $x2203) $x2076)))
 (let (($x1803 (= loc_2 4)))
 (let (($x2167 (and $x1803 (not (= $i4_main0_2 1)))))
 (let (($x2047 (= $i6_main0_3 $i6_main0_2)))
 (let (($x2021 (and (and (and (and $x2009 (= $i2_main0_3 $i2_main0_2)) $x2014) $x2017) $x2020)))
 (let (($x2039 (and (and (and (and (and (and $x2021 $x2023) $x2026) $x2029) $x2032) $x2035) $x2038)))
 (let (($x2057 (and (and (and (and (and (and $x2039 $x2041) $x2044) $x2047) $x2050) $x2053) $x2056)))
 (let (($x2063 (and (and $x2057 $x2059) $x2062)))
 (let (($x2156 (and (and (and $x2063 $x2138) $x2065) $x2068)))
 (let (($x2278 (and (and (and (or true invalidFree_2) (and true true)) $x1954) $x2156)))
 (let (($x2149 (= $i4_main0_2 1)))
 (let (($x2150 (and $x1803 $x2149)))
 (let (($x2145 (= loc_3 6)))
 (let (($x2011 (= $i2_main0_3 $i2_main0_2)))
 (let (($x2113 (and (and (and (and (and (and $x1970 $x1975) $x1978) $x1981) $x1984) $x1987) $x1990)))
 (let (($x2119 (and (and (and (and (and (and $x2113 $x1993) $x1996) $x1999) $x2002) $x2005) $x2008)))
 (let (($x2125 (and (and (and (and (and (and $x2119 $x2011) $x2014) $x2017) $x2020) $x2023) $x2026)))
 (let (($x2131 (and (and (and (and (and (and $x2125 $x2029) $x2032) $x2035) $x2038) $x2041) $x2044)))
 (let (($x2137 (and (and (and (and (and (and $x2131 $x2047) $x2050) $x2053) $x2056) $x2059) $x2062)))
 (let (($x2141 (and (and (and $x2137 $x2138) $x2065) $x2068)))
 (let (($x2106 (and (and $x1945 $x1950) $x1953)))
 (let (($x2101 (= $p9_main0_3 $p9_main01_3)))
 (let (($x2100 (= $i10_main0_3 $i10_main01_3)))
 (let (($x2102 (and $x2100 $x2101)))
 (let (($x2103 (and $x2102 true)))
 (let (($x2095 (or (and (and (distinct $p9_main01_3 nil) true) (= $i10_main01_3 1)) (and (not (and (distinct $p9_main01_3 nil) true)) (= $i10_main01_3 0)))))
 (let (($x2097 (= $p9_main01_3 $M.10_2)))
 (let (($x2265 (or $x2097 invalidFree_2)))
 (let (($x2270 (and (and (and (and (and $x2265 (or $x2095 invalidFree_2)) $x2103) $x2106) $x2141) $x2076)))
 (let (($x1752 (= loc_2 3)))
 (let (($x2088 (and $x1752 (not (= $i2_main0_2 1)))))
 (let (($x2082 (= loc_3 5)))
 (let (($x2069 (and (and $x2063 $x2065) $x2068)))
 (let (($x1820 (= $i8_main0_3 $i8_main01_3)))
 (let (($x1821 (and $x1820 true)))
 (let (($x1817 (or (and (and (distinct $i7_main0_2 0) true) (= $i8_main01_3 1)) (and (not (and (distinct $i7_main0_2 0) true)) (= $i8_main01_3 0)))))
 (let (($x2261 (and (and (and (and (and (or $x1817 invalidFree_2) $x1821) $x1954) $x2069) $x2076) $x2260)))
 (let (($x1809 (= $i2_main0_2 1)))
 (let (($x1810 (and $x1752 $x1809)))
 (let (($x2274 (and (=> $x1810 (and $x2261 $x2082)) (=> $x2088 (and (and $x2270 $x2260) $x2145)))))
 (let (($x2294 (and (and $x2274 (=> $x2150 (and (and (and $x2278 $x2076) $x2260) $x2160))) (=> $x2167 (and (and $x2290 $x2260) $x2160)))))
 (let (($x2236 (= invalidFree_2 invalidFree_1)))
 (let (($x1745 (= H_2 H_1)))
 (let (($x1746 (and (and true (= AH_2 AH_1)) $x1745)))
 (let (($x1738 (= $r_main0_2 $r_main0_1)))
 (let (($x1735 (= $i8_push0_2 $i8_push0_1)))
 (let (($x1732 (= $i8_main0_2 $i8_main0_1)))
 (let (($x1729 (= $i7_push0_2 $i7_push0_1)))
 (let (($x1726 (= $i7_pop0_2 $i7_pop0_1)))
 (let (($x1723 (= $i7_main0_2 $i7_main0_1)))
 (let (($x1720 (= $i6_push0_2 $i6_push0_1)))
 (let (($x1717 (= $i6_pop0_2 $i6_pop0_1)))
 (let (($x1714 (= $i6_main0_2 $i6_main0_1)))
 (let (($x1711 (= $i5_push0_2 $i5_push0_1)))
 (let (($x1708 (= $i5_pop0_2 $i5_pop0_1)))
 (let (($x1705 (= $i5_main0_2 $i5_main0_1)))
 (let (($x1702 (= $i4_push0_2 $i4_push0_1)))
 (let (($x1699 (= $i4_pop0_2 $i4_pop0_1)))
 (let (($x1693 (= $i3_push0_2 $i3_push0_1)))
 (let (($x1690 (= $i3_pop0_2 $i3_pop0_1)))
 (let (($x1684 (= $i2_push0_2 $i2_push0_1)))
 (let (($x1681 (= $i2_pop0_2 $i2_pop0_1)))
 (let (($x1675 (= $i23_push0_2 $i23_push0_1)))
 (let (($x1672 (= $i22_main0_2 $i22_main0_1)))
 (let (($x1669 (= $i21_main0_2 $i21_main0_1)))
 (let (($x1666 (= $i20_pop0_2 $i20_pop0_1)))
 (let (($x1663 (= $i20_main0_2 $i20_main0_1)))
 (let (($x1660 (= $i1_push0_2 $i1_push0_1)))
 (let (($x1657 (= $i1_pop0_2 $i1_pop0_1)))
 (let (($x1654 (= $i1_main0_2 $i1_main0_1)))
 (let (($x1651 (= $i19_main0_2 $i19_main0_1)))
 (let (($x1648 (= $i17_main0_2 $i17_main0_1)))
 (let (($x1645 (= $i16_pop0_2 $i16_pop0_1)))
 (let (($x1642 (= $i10_pop0_2 $i10_pop0_1)))
 (let (($x1639 (= $i10_main0_2 $i10_main0_1)))
 (let (($x1636 (= $i0_push0_2 $i0_push0_1)))
 (let (($x1633 (= $i0_pop0_2 $i0_pop0_1)))
 (let (($x1630 (= $M.9_2 $M.9_1)))
 (let (($x1631 (and (and (and true (= $M.0_2 $M.0_1)) (= $M.6_2 $M.6_1)) $x1630)))
 (let (($x1649 (and (and (and (and (and (and $x1631 $x1633) $x1636) $x1639) $x1642) $x1645) $x1648)))
 (let (($x1667 (and (and (and (and (and (and $x1649 $x1651) $x1654) $x1657) $x1660) $x1663) $x1666)))
 (let (($x1676 (and (and (and $x1667 $x1669) $x1672) $x1675)))
 (let (($x1787 (and (and (and (and (and (and $x1676 $x1681) $x1684) $x1690) $x1693) $x1699) $x1702)))
 (let (($x1793 (and (and (and (and (and (and $x1787 $x1705) $x1708) $x1711) $x1714) $x1717) $x1720)))
 (let (($x1799 (and (and (and (and (and (and $x1793 $x1723) $x1726) $x1729) $x1732) $x1735) $x1738)))
 (let (($x1620 (= $p9_push0_2 $p9_push0_1)))
 (let (($x1617 (= $p9_pop0_2 $p9_pop0_1)))
 (let (($x1614 (= $p9_main0_2 $p9_main0_1)))
 (let (($x1611 (= $p8_pop0_2 $p8_pop0_1)))
 (let (($x1608 (= $p24_push0_2 $p24_push0_1)))
 (let (($x1605 (= $p24_pop0_2 $p24_pop0_1)))
 (let (($x1602 (= $p23_pop0_2 $p23_pop0_1)))
 (let (($x1599 (= $p22_push0_2 $p22_push0_1)))
 (let (($x1596 (= $p22_pop0_2 $p22_pop0_1)))
 (let (($x1593 (= $p21_push0_2 $p21_push0_1)))
 (let (($x1590 (= $p21_pop0_2 $p21_pop0_1)))
 (let (($x1587 (= $p20_push0_2 $p20_push0_1)))
 (let (($x1584 (= $p19_push0_2 $p19_push0_1)))
 (let (($x1581 (= $p19_pop0_2 $p19_pop0_1)))
 (let (($x1578 (= $p18_push0_2 $p18_push0_1)))
 (let (($x1575 (= $p18_pop0_2 $p18_pop0_1)))
 (let (($x1572 (= $p18_main0_2 $p18_main0_1)))
 (let (($x1569 (= $p17_push0_2 $p17_push0_1)))
 (let (($x1566 (= $p17_pop0_2 $p17_pop0_1)))
 (let (($x1563 (= $p16_push0_2 $p16_push0_1)))
 (let (($x1560 (= $p16_main0_2 $p16_main0_1)))
 (let (($x1557 (= $p15_push0_2 $p15_push0_1)))
 (let (($x1554 (= $p15_pop0_2 $p15_pop0_1)))
 (let (($x1551 (= $p15_main0_2 $p15_main0_1)))
 (let (($x1548 (= $p14_push0_2 $p14_push0_1)))
 (let (($x1545 (= $p14_pop0_2 $p14_pop0_1)))
 (let (($x1542 (= $p14_main0_2 $p14_main0_1)))
 (let (($x1539 (= $p13_push0_2 $p13_push0_1)))
 (let (($x1536 (= $p13_pop0_2 $p13_pop0_1)))
 (let (($x1533 (= $p13_main0_2 $p13_main0_1)))
 (let (($x1530 (= $p12_push0_2 $p12_push0_1)))
 (let (($x1527 (= $p12_pop0_2 $p12_pop0_1)))
 (let (($x1524 (= $p12_main0_2 $p12_main0_1)))
 (let (($x1521 (= $p11_push0_2 $p11_push0_1)))
 (let (($x1518 (= $p11_pop0_2 $p11_pop0_1)))
 (let (($x1515 (= $p11_main0_2 $p11_main0_1)))
 (let (($x1512 (= $p10_push0_2 $p10_push0_1)))
 (let (($x1509 (= $p0_main0_2 $p0_main0_1)))
 (let (($x1506 (= $M.8_2 $M.8_1)))
 (let (($x1503 (= $M.7_2 $M.7_1)))
 (let (($x1500 (= $M.5_2 $M.5_1)))
 (let (($x1497 (= $M.4_2 $M.4_1)))
 (let (($x1498 (and (and (and true (= $M.1_2 $M.1_1)) (= $M.10_2 $M.10_1)) $x1497)))
 (let (($x1516 (and (and (and (and (and (and $x1498 $x1500) $x1503) $x1506) $x1509) $x1512) $x1515)))
 (let (($x1534 (and (and (and (and (and (and $x1516 $x1518) $x1521) $x1524) $x1527) $x1530) $x1533)))
 (let (($x1552 (and (and (and (and (and (and $x1534 $x1536) $x1539) $x1542) $x1545) $x1548) $x1551)))
 (let (($x1570 (and (and (and (and (and (and $x1552 $x1554) $x1557) $x1560) $x1563) $x1566) $x1569)))
 (let (($x1588 (and (and (and (and (and (and $x1570 $x1572) $x1575) $x1578) $x1581) $x1584) $x1587)))
 (let (($x1606 (and (and (and (and (and (and $x1588 $x1590) $x1593) $x1596) $x1599) $x1602) $x1605)))
 (let (($x1621 (and (and (and (and (and $x1606 $x1608) $x1611) $x1614) $x1617) $x1620)))
 (let (($x1777 (= $i4_main0_2 $i4_main01_2)))
 (let (($x1778 (and (and (= $i2_main0_2 $i2_main02_2) (= $i3_main0_2 $i3_main01_2)) $x1777)))
 (let (($x1779 (and $x1778 true)))
 (let (($x1760 (= $i2_main02_2 1)))
 (let (($x2240 (or $x1760 invalidFree_1)))
 (let (($x1768 (or (and (and (distinct 1 $i3_main01_2) true) (= $i4_main01_2 1)) (and (not (and (distinct 1 $i3_main01_2) true)) (= $i4_main01_2 0)))))
 (let (($x1770 (= $i3_main01_2 $M.0_1)))
 (let (($x2242 (or $x1770 invalidFree_1)))
 (let (($x2247 (and (and (and (and (and $x2242 (or $x1768 invalidFree_1)) $x2240) $x1779) $x1621) $x1799)))
 (let (($x1481 (= loc_1 2)))
 (let (($x1759 (and $x1481 (not (= $i1_main0_1 1)))))
 (let (($x1696 (= $i4_main0_2 $i4_main0_1)))
 (let (($x1687 (= $i3_main0_2 $i3_main0_1)))
 (let (($x1688 (and (and (and (and $x1676 (= $i2_main0_2 $i2_main0_1)) $x1681) $x1684) $x1687)))
 (let (($x1706 (and (and (and (and (and (and $x1688 $x1690) $x1693) $x1696) $x1699) $x1702) $x1705)))
 (let (($x1724 (and (and (and (and (and (and $x1706 $x1708) $x1711) $x1714) $x1717) $x1720) $x1723)))
 (let (($x1739 (and (and (and (and (and $x1724 $x1726) $x1729) $x1732) $x1735) $x1738)))
 (let (($x2233 (and (and (and (or true invalidFree_1) (and true true)) $x1621) $x1739)))
 (let (($x1485 (= $i1_main0_1 1)))
 (let (($x1486 (and $x1481 $x1485)))
 (let (($x2252 (and (=> $x1486 (and (and (and $x2233 $x1746) $x2236) $x1752)) (=> $x1759 (and (and (and $x2247 $x1746) $x2236) $x1803)))))
 (let (($x2225 (= invalidFree_1 invalidFree_0)))
 (let (($x1474 (= H_1 H_0)))
 (let (($x1475 (and (and true (= AH_1 AH_0)) $x1474)))
 (let (($x1467 (= $r_main0_1 $r_main0_0)))
 (let (($x1463 (= $i8_push0_1 $i8_push0_0)))
 (let (($x1459 (= $i8_main0_1 $i8_main0_0)))
 (let (($x1455 (= $i7_push0_1 $i7_push0_0)))
 (let (($x1451 (= $i7_pop0_1 $i7_pop0_0)))
 (let (($x1447 (= $i7_main0_1 $i7_main0_0)))
 (let (($x1443 (= $i6_push0_1 $i6_push0_0)))
 (let (($x1439 (= $i6_pop0_1 $i6_pop0_0)))
 (let (($x1435 (= $i6_main0_1 $i6_main0_0)))
 (let (($x1431 (= $i5_push0_1 $i5_push0_0)))
 (let (($x1427 (= $i5_pop0_1 $i5_pop0_0)))
 (let (($x1423 (= $i5_main0_1 $i5_main0_0)))
 (let (($x1419 (= $i4_push0_1 $i4_push0_0)))
 (let (($x1415 (= $i4_pop0_1 $i4_pop0_0)))
 (let (($x1411 (= $i4_main0_1 $i4_main0_0)))
 (let (($x1407 (= $i3_push0_1 $i3_push0_0)))
 (let (($x1403 (= $i3_pop0_1 $i3_pop0_0)))
 (let (($x1399 (= $i3_main0_1 $i3_main0_0)))
 (let (($x1395 (= $i2_push0_1 $i2_push0_0)))
 (let (($x1391 (= $i2_pop0_1 $i2_pop0_0)))
 (let (($x1387 (= $i23_push0_1 $i23_push0_0)))
 (let (($x1383 (= $i22_main0_1 $i22_main0_0)))
 (let (($x1379 (= $i21_main0_1 $i21_main0_0)))
 (let (($x1375 (= $i20_pop0_1 $i20_pop0_0)))
 (let (($x1371 (= $i20_main0_1 $i20_main0_0)))
 (let (($x1367 (= $i1_push0_1 $i1_push0_0)))
 (let (($x1363 (= $i1_pop0_1 $i1_pop0_0)))
 (let (($x1359 (= $i19_main0_1 $i19_main0_0)))
 (let (($x1355 (= $i17_main0_1 $i17_main0_0)))
 (let (($x1351 (= $i16_pop0_1 $i16_pop0_0)))
 (let (($x1347 (= $i10_pop0_1 $i10_pop0_0)))
 (let (($x1343 (= $i10_main0_1 $i10_main0_0)))
 (let (($x1339 (= $i0_push0_1 $i0_push0_0)))
 (let (($x1335 (= $i0_pop0_1 $i0_pop0_0)))
 (let (($x1331 (= $M.9_1 $M.9_0)))
 (let (($x1332 (and (and (and true (= $M.0_1 $M.0_0)) (= $M.6_1 $M.6_0)) $x1331)))
 (let (($x1356 (and (and (and (and (and (and $x1332 $x1335) $x1339) $x1343) $x1347) $x1351) $x1355)))
 (let (($x1380 (and (and (and (and (and (and $x1356 $x1359) $x1363) $x1367) $x1371) $x1375) $x1379)))
 (let (($x1404 (and (and (and (and (and (and $x1380 $x1383) $x1387) $x1391) $x1395) $x1399) $x1403)))
 (let (($x1428 (and (and (and (and (and (and $x1404 $x1407) $x1411) $x1415) $x1419) $x1423) $x1427)))
 (let (($x1452 (and (and (and (and (and (and $x1428 $x1431) $x1435) $x1439) $x1443) $x1447) $x1451)))
 (let (($x1468 (and (and (and (and $x1452 $x1455) $x1459) $x1463) $x1467)))
 (let (($x1318 (= $p9_push0_1 $p9_push0_0)))
 (let (($x1314 (= $p9_pop0_1 $p9_pop0_0)))
 (let (($x1310 (= $p9_main0_1 $p9_main0_0)))
 (let (($x1306 (= $p8_pop0_1 $p8_pop0_0)))
 (let (($x1302 (= $p24_push0_1 $p24_push0_0)))
 (let (($x1298 (= $p24_pop0_1 $p24_pop0_0)))
 (let (($x1294 (= $p23_pop0_1 $p23_pop0_0)))
 (let (($x1290 (= $p22_push0_1 $p22_push0_0)))
 (let (($x1286 (= $p22_pop0_1 $p22_pop0_0)))
 (let (($x1282 (= $p21_push0_1 $p21_push0_0)))
 (let (($x1278 (= $p21_pop0_1 $p21_pop0_0)))
 (let (($x1274 (= $p20_push0_1 $p20_push0_0)))
 (let (($x1270 (= $p19_push0_1 $p19_push0_0)))
 (let (($x1266 (= $p19_pop0_1 $p19_pop0_0)))
 (let (($x1262 (= $p18_push0_1 $p18_push0_0)))
 (let (($x1258 (= $p18_pop0_1 $p18_pop0_0)))
 (let (($x1254 (= $p18_main0_1 $p18_main0_0)))
 (let (($x1250 (= $p17_push0_1 $p17_push0_0)))
 (let (($x1246 (= $p17_pop0_1 $p17_pop0_0)))
 (let (($x1242 (= $p16_push0_1 $p16_push0_0)))
 (let (($x1238 (= $p16_main0_1 $p16_main0_0)))
 (let (($x1234 (= $p15_push0_1 $p15_push0_0)))
 (let (($x1230 (= $p15_pop0_1 $p15_pop0_0)))
 (let (($x1226 (= $p15_main0_1 $p15_main0_0)))
 (let (($x1222 (= $p14_push0_1 $p14_push0_0)))
 (let (($x1218 (= $p14_pop0_1 $p14_pop0_0)))
 (let (($x1214 (= $p14_main0_1 $p14_main0_0)))
 (let (($x1210 (= $p13_push0_1 $p13_push0_0)))
 (let (($x1206 (= $p13_pop0_1 $p13_pop0_0)))
 (let (($x1202 (= $p13_main0_1 $p13_main0_0)))
 (let (($x1198 (= $p12_push0_1 $p12_push0_0)))
 (let (($x1194 (= $p12_pop0_1 $p12_pop0_0)))
 (let (($x1190 (= $p12_main0_1 $p12_main0_0)))
 (let (($x1186 (= $p11_push0_1 $p11_push0_0)))
 (let (($x1182 (= $p11_pop0_1 $p11_pop0_0)))
 (let (($x1178 (= $p11_main0_1 $p11_main0_0)))
 (let (($x1174 (= $p10_push0_1 $p10_push0_0)))
 (let (($x1170 (= $M.8_1 $M.8_0)))
 (let (($x1166 (= $M.7_1 $M.7_0)))
 (let (($x1162 (= $M.5_1 $M.5_0)))
 (let (($x1158 (= $M.4_1 $M.4_0)))
 (let (($x1159 (and (and (and true (= $M.1_1 $M.1_0)) (= $M.10_1 $M.10_0)) $x1158)))
 (let (($x1183 (and (and (and (and (and (and $x1159 $x1162) $x1166) $x1170) $x1174) $x1178) $x1182)))
 (let (($x1207 (and (and (and (and (and (and $x1183 $x1186) $x1190) $x1194) $x1198) $x1202) $x1206)))
 (let (($x1231 (and (and (and (and (and (and $x1207 $x1210) $x1214) $x1218) $x1222) $x1226) $x1230)))
 (let (($x1255 (and (and (and (and (and (and $x1231 $x1234) $x1238) $x1242) $x1246) $x1250) $x1254)))
 (let (($x1279 (and (and (and (and (and (and $x1255 $x1258) $x1262) $x1266) $x1270) $x1274) $x1278)))
 (let (($x1303 (and (and (and (and (and (and $x1279 $x1282) $x1286) $x1290) $x1294) $x1298) $x1302)))
 (let (($x1319 (and (and (and (and $x1303 $x1306) $x1310) $x1314) $x1318)))
 (let (($x1145 (= $p0_main0_1 $p0_main01_1)))
 (let (($x1146 (and (and (= $i1_main0_1 $i1_main01_1) (= $i2_main0_1 $i2_main01_1)) $x1145)))
 (let (($x1147 (and $x1146 true)))
 (let (($x1125 (= $i2_main01_1 1)))
 (let (($x2215 (or $x1125 invalidFree_0)))
 (let (($x1133 (or (and (and (distinct $p0_main01_1 nil) true) (= $i1_main01_1 1)) (and (not (and (distinct $p0_main01_1 nil) true)) (= $i1_main01_1 0)))))
 (let (($x1135 (= $p0_main01_1 $M.4_0)))
 (let (($x2217 (or $x1135 invalidFree_0)))
 (let (($x2222 (and (and (and (and (and $x2217 (or $x1133 invalidFree_0)) $x2215) $x1147) $x1319) $x1468)))
 (let (($x1115 (= loc_0 1)))
 (let (($x2213 (not invalidFree_0)))
 (let (($x1117 (and (and (= H_0 emp) (= AH_0 emp)) $x1115)))
 (let (($x2229 (and (and $x1117 $x2213) (=> $x1115 (and (and (and $x2222 $x1475) $x2225) $x1481)))))
 (and (and (and $x2229 $x2252) $x2294) invalidFree_3)))))))))))))))))))))))))))))))))))))))))))))))))))))))))))))))))))))))))))))))))))))))))))))))))))))))))))))))))))))))))))))))))))))))))))))))))))))))))))))))))))))))))))))))))))))))))))))))))))))))))))))))))))))))))))))))))))))))))))))))))))))))))))))))))))))))))))))))))))))))))))))))))))))))))))))))))))))))))))))))))))))))))))))))))))))))))))))))))))))))))))))))))))
(check-sat)
